words_hard_train/8672.qaiger
aag 85 16 0 1 69
2
4
8
12
16
20
24
28
36
44
46
50
54
58
62
66
170
6 2 4
10 6 8
14 11 13
18 14 17
22 18 21
26 23 24
30 27 29
32 26 28
34 31 33
38 35 36
40 22 25
42 41 27
48 45 47
52 48 51
56 52 55
60 56 59
64 60 63
68 65 66
70 64 67
72 69 71
74 43 73
76 19 20
78 77 23
80 61 62
82 81 65
84 78 83
86 75 85
88 79 82
90 15 16
92 91 19
94 57 58
96 95 61
98 93 96
100 89 99
102 92 97
104 53 54
106 105 57
108 10 12
110 109 15
112 107 110
114 103 113
116 5 46
118 2 45
120 116 119
122 121 7
124 122 49
126 7 9
128 127 11
130 49 50
132 131 53
134 128 132
136 125 135
138 129 133
140 137 139
142 106 111
144 141 143
146 114 145
148 100 147
150 86 149
152 42 72
154 151 153
156 155 70
158 38 156
160 39 157
162 154 71
164 34 37
166 163 165
168 160 167
170 159 169
i0 2 y2[0]
i1 2 y2[1]
i2 2 y2[2]
i3 2 y2[3]
i4 2 y2[4]
i5 2 y2[5]
i6 2 y2[6]
i7 2 y2[7]
i8 1 x1[7]
i9 1 x1[0]
i10 1 x1[1]
i11 1 x1[2]
i12 1 x1[3]
i13 1 x1[4]
i14 1 x1[5]
i15 1 x1[6]
o0 bv[0]
c
simplified
  <=
    1 x1
    add
      1
      add
        abs
          56
        2 y2
